p cnf 200 1110
-101 48 0
-101 -2 0
-101 -9 0
-101 -15 0
-101 20 0
-101 30 0
-101 -32 0
-101 76 0
-101 95 0
-101 98 0
101 -48 2 9 15 -20 -30 32 -76 -95 -98 0
-102 1 0
-102 34 0
-102 -10 0
-102 -47 0
-102 -42 0
-102 11 0
-102 -32 0
-102 -83 0
-102 6 0
-102 -24 0
102 -1 -34 10 47 42 -11 32 83 -6 24 0
-103 29 0
-103 57 0
-103 13 0
-103 64 0
-103 -44 0
-103 91 0
-103 39 0
-103 -49 0
-103 -70 0
-103 -90 0
103 -29 -57 -13 -64 44 -91 -39 49 70 90 0
-104 -58 0
-104 15 0
-104 88 0
-104 -38 0
-104 14 0
-104 82 0
-104 -73 0
-104 76 0
-104 -66 0
-104 10 0
104 58 -15 -88 38 -14 -82 73 -76 66 -10 0
-105 -55 0
-105 -13 0
-105 37 0
-105 14 0
-105 73 0
-105 -61 0
-105 -88 0
-105 4 0
-105 -68 0
-105 -75 0
105 55 13 -37 -14 -73 61 88 -4 68 75 0
-106 -48 0
-106 -60 0
-106 -95 0
-106 -53 0
-106 -34 0
-106 58 0
-106 56 0
-106 74 0
-106 -80 0
-106 -55 0
106 48 60 95 53 34 -58 -56 -74 80 55 0
-107 11 0
-107 -10 0
-107 -67 0
-107 68 0
-107 36 0
-107 -22 0
-107 48 0
-107 28 0
-107 -82 0
-107 -54 0
107 -11 10 67 -68 -36 22 -48 -28 82 54 0
-108 37 0
-108 51 0
-108 16 0
-108 32 0
-108 19 0
-108 -66 0
-108 59 0
-108 40 0
-108 39 0
-108 -71 0
108 -37 -51 -16 -32 -19 66 -59 -40 -39 71 0
-109 23 0
-109 31 0
-109 -95 0
-109 -43 0
-109 98 0
-109 66 0
-109 -28 0
-109 90 0
-109 -45 0
-109 -10 0
109 -23 -31 95 43 -98 -66 28 -90 45 10 0
-110 23 0
-110 -35 0
-110 39 0
-110 47 0
-110 29 0
-110 -7 0
-110 11 0
-110 59 0
-110 53 0
-110 -16 0
110 -23 35 -39 -47 -29 7 -11 -59 -53 16 0
101 102 103 104 105 106 107 108 109 110 0
-111 81 0
-111 54 0
-111 20 0
-111 69 0
-111 63 0
-111 -64 0
-111 -45 0
-111 66 0
-111 -47 0
-111 27 0
111 -81 -54 -20 -69 -63 64 45 -66 47 -27 0
-112 -87 0
-112 -52 0
-112 36 0
-112 78 0
-112 -9 0
-112 40 0
-112 14 0
-112 35 0
-112 22 0
-112 -20 0
112 87 52 -36 -78 9 -40 -14 -35 -22 20 0
-113 -35 0
-113 -89 0
-113 -5 0
-113 90 0
-113 78 0
-113 -8 0
-113 -26 0
-113 81 0
-113 23 0
-113 -58 0
113 35 89 5 -90 -78 8 26 -81 -23 58 0
-114 -20 0
-114 -49 0
-114 64 0
-114 -37 0
-114 -58 0
-114 80 0
-114 -100 0
-114 -97 0
-114 -65 0
-114 61 0
114 20 49 -64 37 58 -80 100 97 65 -61 0
-115 -47 0
-115 100 0
-115 -89 0
-115 81 0
-115 62 0
-115 -58 0
-115 97 0
-115 5 0
-115 -34 0
-115 -57 0
115 47 -100 89 -81 -62 58 -97 -5 34 57 0
-116 74 0
-116 -37 0
-116 -62 0
-116 -100 0
-116 99 0
-116 -33 0
-116 -70 0
-116 29 0
-116 -49 0
-116 -96 0
116 -74 37 62 100 -99 33 70 -29 49 96 0
-117 48 0
-117 -97 0
-117 63 0
-117 18 0
-117 -31 0
-117 -76 0
-117 43 0
-117 -27 0
-117 -28 0
-117 90 0
117 -48 97 -63 -18 31 76 -43 27 28 -90 0
-118 2 0
-118 -63 0
-118 39 0
-118 -95 0
-118 21 0
-118 -85 0
-118 -41 0
-118 -80 0
-118 46 0
-118 -66 0
118 -2 63 -39 95 -21 85 41 80 -46 66 0
-119 5 0
-119 8 0
-119 -51 0
-119 69 0
-119 16 0
-119 96 0
-119 -31 0
-119 18 0
-119 -66 0
-119 -40 0
119 -5 -8 51 -69 -16 -96 31 -18 66 40 0
-120 30 0
-120 -25 0
-120 -44 0
-120 92 0
-120 11 0
-120 38 0
-120 -62 0
-120 -27 0
-120 -29 0
-120 -12 0
120 -30 25 44 -92 -11 -38 62 27 29 12 0
111 112 113 114 115 116 117 118 119 120 0
-121 56 0
-121 11 0
-121 -82 0
-121 5 0
-121 52 0
-121 28 0
-121 78 0
-121 -29 0
-121 98 0
-121 12 0
121 -56 -11 82 -5 -52 -28 -78 29 -98 -12 0
-122 25 0
-122 73 0
-122 -45 0
-122 -64 0
-122 -56 0
-122 16 0
-122 15 0
-122 -48 0
-122 -100 0
-122 -14 0
122 -25 -73 45 64 56 -16 -15 48 100 14 0
-123 38 0
-123 -86 0
-123 -80 0
-123 -35 0
-123 93 0
-123 5 0
-123 11 0
-123 3 0
-123 -41 0
-123 -19 0
123 -38 86 80 35 -93 -5 -11 -3 41 19 0
-124 64 0
-124 -5 0
-124 -3 0
-124 33 0
-124 35 0
-124 -81 0
-124 -90 0
-124 99 0
-124 42 0
-124 -84 0
124 -64 5 3 -33 -35 81 90 -99 -42 84 0
-125 2 0
-125 31 0
-125 -10 0
-125 -76 0
-125 -66 0
-125 -8 0
-125 -1 0
-125 -22 0
-125 -55 0
-125 -25 0
125 -2 -31 10 76 66 8 1 22 55 25 0
-126 96 0
-126 26 0
-126 -8 0
-126 25 0
-126 93 0
-126 -15 0
-126 31 0
-126 -49 0
-126 19 0
-126 -86 0
126 -96 -26 8 -25 -93 15 -31 49 -19 86 0
-127 58 0
-127 76 0
-127 -6 0
-127 -41 0
-127 -4 0
-127 -72 0
-127 -37 0
-127 -33 0
-127 -87 0
-127 -63 0
127 -58 -76 6 41 4 72 37 33 87 63 0
-128 -99 0
-128 37 0
-128 2 0
-128 -13 0
-128 33 0
-128 78 0
-128 82 0
-128 49 0
-128 68 0
-128 -83 0
128 99 -37 -2 13 -33 -78 -82 -49 -68 83 0
-129 -11 0
-129 34 0
-129 13 0
-129 -65 0
-129 -1 0
-129 77 0
-129 7 0
-129 94 0
-129 45 0
-129 71 0
129 11 -34 -13 65 1 -77 -7 -94 -45 -71 0
-130 29 0
-130 19 0
-130 -6 0
-130 53 0
-130 69 0
-130 23 0
-130 18 0
-130 71 0
-130 -73 0
-130 -43 0
130 -29 -19 6 -53 -69 -23 -18 -71 73 43 0
121 122 123 124 125 126 127 128 129 130 0
-131 50 0
-131 -96 0
-131 78 0
-131 -86 0
-131 -10 0
-131 17 0
-131 -65 0
-131 91 0
-131 -11 0
-131 -75 0
131 -50 96 -78 86 10 -17 65 -91 11 75 0
-132 99 0
-132 -16 0
-132 -89 0
-132 88 0
-132 -37 0
-132 -85 0
-132 -82 0
-132 -9 0
-132 40 0
-132 -75 0
132 -99 16 89 -88 37 85 82 9 -40 75 0
-133 97 0
-133 50 0
-133 58 0
-133 -73 0
-133 -51 0
-133 -92 0
-133 -29 0
-133 -39 0
-133 56 0
-133 -48 0
133 -97 -50 -58 73 51 92 29 39 -56 48 0
-134 45 0
-134 55 0
-134 -4 0
-134 -43 0
-134 -59 0
-134 12 0
-134 -84 0
-134 -21 0
-134 46 0
-134 80 0
134 -45 -55 4 43 59 -12 84 21 -46 -80 0
-135 56 0
-135 96 0
-135 70 0
-135 91 0
-135 9 0
-135 100 0
-135 25 0
-135 20 0
-135 97 0
-135 18 0
135 -56 -96 -70 -91 -9 -100 -25 -20 -97 -18 0
-136 11 0
-136 -21 0
-136 79 0
-136 99 0
-136 -44 0
-136 7 0
-136 -50 0
-136 -75 0
-136 34 0
-136 48 0
136 -11 21 -79 -99 44 -7 50 75 -34 -48 0
-137 95 0
-137 92 0
-137 82 0
-137 3 0
-137 89 0
-137 -22 0
-137 -17 0
-137 85 0
-137 34 0
-137 -6 0
137 -95 -92 -82 -3 -89 22 17 -85 -34 6 0
-138 12 0
-138 27 0
-138 -69 0
-138 53 0
-138 11 0
-138 -48 0
-138 -59 0
-138 16 0
-138 -43 0
-138 -45 0
138 -12 -27 69 -53 -11 48 59 -16 43 45 0
-139 -8 0
-139 -91 0
-139 -65 0
-139 -80 0
-139 -41 0
-139 28 0
-139 39 0
-139 20 0
-139 -1 0
-139 -63 0
139 8 91 65 80 41 -28 -39 -20 1 63 0
-140 -86 0
-140 49 0
-140 -42 0
-140 9 0
-140 64 0
-140 6 0
-140 14 0
-140 38 0
-140 -1 0
-140 60 0
140 86 -49 42 -9 -64 -6 -14 -38 1 -60 0
131 132 133 134 135 136 137 138 139 140 0
-141 31 0
-141 15 0
-141 22 0
-141 19 0
-141 -72 0
-141 -46 0
-141 -93 0
-141 50 0
-141 20 0
-141 96 0
141 -31 -15 -22 -19 72 46 93 -50 -20 -96 0
-142 -66 0
-142 -52 0
-142 34 0
-142 -9 0
-142 69 0
-142 49 0
-142 -59 0
-142 -12 0
-142 94 0
-142 -58 0
142 66 52 -34 9 -69 -49 59 12 -94 58 0
-143 -15 0
-143 -66 0
-143 94 0
-143 -80 0
-143 -2 0
-143 55 0
-143 -16 0
-143 -58 0
-143 -78 0
-143 -54 0
143 15 66 -94 80 2 -55 16 58 78 54 0
-144 32 0
-144 -30 0
-144 -5 0
-144 -22 0
-144 -23 0
-144 -28 0
-144 -69 0
-144 -64 0
-144 -59 0
-144 60 0
144 -32 30 5 22 23 28 69 64 59 -60 0
-145 6 0
-145 25 0
-145 -5 0
-145 -46 0
-145 56 0
-145 -91 0
-145 -19 0
-145 -29 0
-145 -83 0
-145 81 0
145 -6 -25 5 46 -56 91 19 29 83 -81 0
-146 -81 0
-146 94 0
-146 -12 0
-146 -37 0
-146 -58 0
-146 36 0
-146 42 0
-146 -43 0
-146 -13 0
-146 67 0
146 81 -94 12 37 58 -36 -42 43 13 -67 0
-147 -60 0
-147 -20 0
-147 -26 0
-147 71 0
-147 23 0
-147 -45 0
-147 -24 0
-147 64 0
-147 94 0
-147 -68 0
147 60 20 26 -71 -23 45 24 -64 -94 68 0
-148 75 0
-148 72 0
-148 28 0
-148 67 0
-148 -13 0
-148 18 0
-148 -9 0
-148 58 0
-148 -66 0
-148 -91 0
148 -75 -72 -28 -67 13 -18 9 -58 66 91 0
-149 -86 0
-149 -59 0
-149 -50 0
-149 -61 0
-149 4 0
-149 49 0
-149 -46 0
-149 -78 0
-149 38 0
-149 79 0
149 86 59 50 61 -4 -49 46 78 -38 -79 0
-150 -80 0
-150 -87 0
-150 45 0
-150 -91 0
-150 62 0
-150 -42 0
-150 29 0
-150 5 0
-150 4 0
-150 50 0
150 80 87 -45 91 -62 42 -29 -5 -4 -50 0
141 142 143 144 145 146 147 148 149 150 0
-151 -29 0
-151 -67 0
-151 -97 0
-151 74 0
-151 43 0
-151 -68 0
-151 -52 0
-151 -9 0
-151 -81 0
-151 -55 0
151 29 67 97 -74 -43 68 52 9 81 55 0
-152 61 0
-152 38 0
-152 58 0
-152 62 0
-152 -91 0
-152 -54 0
-152 52 0
-152 55 0
-152 6 0
-152 -87 0
152 -61 -38 -58 -62 91 54 -52 -55 -6 87 0
-153 -53 0
-153 65 0
-153 -60 0
-153 59 0
-153 -85 0
-153 -52 0
-153 -50 0
-153 -36 0
-153 32 0
-153 81 0
153 53 -65 60 -59 85 52 50 36 -32 -81 0
-154 -26 0
-154 -47 0
-154 -34 0
-154 -76 0
-154 68 0
-154 -67 0
-154 28 0
-154 -72 0
-154 31 0
-154 -93 0
154 26 47 34 76 -68 67 -28 72 -31 93 0
-155 66 0
-155 19 0
-155 67 0
-155 35 0
-155 -88 0
-155 -36 0
-155 42 0
-155 31 0
-155 99 0
-155 -47 0
155 -66 -19 -67 -35 88 36 -42 -31 -99 47 0
-156 -84 0
-156 -7 0
-156 63 0
-156 9 0
-156 -85 0
-156 40 0
-156 -15 0
-156 90 0
-156 -79 0
-156 -88 0
156 84 7 -63 -9 85 -40 15 -90 79 88 0
-157 42 0
-157 -76 0
-157 -78 0
-157 6 0
-157 18 0
-157 59 0
-157 2 0
-157 66 0
-157 -17 0
-157 20 0
157 -42 76 78 -6 -18 -59 -2 -66 17 -20 0
-158 -100 0
-158 56 0
-158 -90 0
-158 12 0
-158 95 0
-158 11 0
-158 -22 0
-158 64 0
-158 74 0
-158 23 0
158 100 -56 90 -12 -95 -11 22 -64 -74 -23 0
-159 -53 0
-159 -56 0
-159 -52 0
-159 57 0
-159 -67 0
-159 13 0
-159 27 0
-159 44 0
-159 5 0
-159 73 0
159 53 56 52 -57 67 -13 -27 -44 -5 -73 0
-160 6 0
-160 52 0
-160 -4 0
-160 -39 0
-160 3 0
-160 59 0
-160 -82 0
-160 -14 0
-160 -73 0
-160 -72 0
160 -6 -52 4 39 -3 -59 82 14 73 72 0
151 152 153 154 155 156 157 158 159 160 0
-161 63 0
-161 31 0
-161 -45 0
-161 -91 0
-161 74 0
-161 -97 0
-161 -54 0
-161 -47 0
-161 -100 0
-161 85 0
161 -63 -31 45 91 -74 97 54 47 100 -85 0
-162 -92 0
-162 35 0
-162 10 0
-162 -78 0
-162 67 0
-162 93 0
-162 -16 0
-162 -66 0
-162 -8 0
-162 70 0
162 92 -35 -10 78 -67 -93 16 66 8 -70 0
-163 -62 0
-163 58 0
-163 -53 0
-163 13 0
-163 -41 0
-163 91 0
-163 -48 0
-163 35 0
-163 -37 0
-163 45 0
163 62 -58 53 -13 41 -91 48 -35 37 -45 0
-164 -4 0
-164 -46 0
-164 -79 0
-164 85 0
-164 -69 0
-164 -48 0
-164 57 0
-164 -36 0
-164 -86 0
-164 -54 0
164 4 46 79 -85 69 48 -57 36 86 54 0
-165 -90 0
-165 -24 0
-165 -98 0
-165 44 0
-165 53 0
-165 11 0
-165 37 0
-165 77 0
-165 -51 0
-165 -25 0
165 90 24 98 -44 -53 -11 -37 -77 51 25 0
-166 6 0
-166 -16 0
-166 35 0
-166 -4 0
-166 28 0
-166 -79 0
-166 -75 0
-166 26 0
-166 74 0
-166 -53 0
166 -6 16 -35 4 -28 79 75 -26 -74 53 0
-167 10 0
-167 57 0
-167 17 0
-167 45 0
-167 46 0
-167 92 0
-167 -87 0
-167 -3 0
-167 -13 0
-167 -88 0
167 -10 -57 -17 -45 -46 -92 87 3 13 88 0
-168 19 0
-168 4 0
-168 68 0
-168 -75 0
-168 9 0
-168 -79 0
-168 -64 0
-168 29 0
-168 -17 0
-168 -99 0
168 -19 -4 -68 75 -9 79 64 -29 17 99 0
-169 50 0
-169 55 0
-169 28 0
-169 -37 0
-169 -25 0
-169 74 0
-169 32 0
-169 -57 0
-169 -53 0
-169 -26 0
169 -50 -55 -28 37 25 -74 -32 57 53 26 0
-170 10 0
-170 -81 0
-170 23 0
-170 -65 0
-170 -100 0
-170 -19 0
-170 -20 0
-170 15 0
-170 -62 0
-170 -33 0
170 -10 81 -23 65 100 19 20 -15 62 33 0
161 162 163 164 165 166 167 168 169 170 0
-171 -95 0
-171 -56 0
-171 73 0
-171 50 0
-171 1 0
-171 -49 0
-171 64 0
-171 -81 0
-171 82 0
-171 -68 0
171 95 56 -73 -50 -1 49 -64 81 -82 68 0
-172 -80 0
-172 64 0
-172 -45 0
-172 -78 0
-172 -48 0
-172 68 0
-172 79 0
-172 -50 0
-172 95 0
-172 94 0
172 80 -64 45 78 48 -68 -79 50 -95 -94 0
-173 97 0
-173 24 0
-173 53 0
-173 62 0
-173 34 0
-173 41 0
-173 -30 0
-173 -72 0
-173 12 0
-173 57 0
173 -97 -24 -53 -62 -34 -41 30 72 -12 -57 0
-174 87 0
-174 -27 0
-174 17 0
-174 -84 0
-174 25 0
-174 52 0
-174 -39 0
-174 -78 0
-174 -79 0
-174 -18 0
174 -87 27 -17 84 -25 -52 39 78 79 18 0
-175 10 0
-175 16 0
-175 69 0
-175 21 0
-175 86 0
-175 15 0
-175 -9 0
-175 -36 0
-175 63 0
-175 -60 0
175 -10 -16 -69 -21 -86 -15 9 36 -63 60 0
-176 -67 0
-176 56 0
-176 75 0
-176 53 0
-176 82 0
-176 12 0
-176 -32 0
-176 80 0
-176 5 0
-176 65 0
176 67 -56 -75 -53 -82 -12 32 -80 -5 -65 0
-177 88 0
-177 56 0
-177 -97 0
-177 49 0
-177 -2 0
-177 -44 0
-177 72 0
-177 85 0
-177 -40 0
-177 -3 0
177 -88 -56 97 -49 2 44 -72 -85 40 3 0
-178 8 0
-178 9 0
-178 -21 0
-178 -61 0
-178 80 0
-178 -49 0
-178 -2 0
-178 -18 0
-178 -7 0
-178 -27 0
178 -8 -9 21 61 -80 49 2 18 7 27 0
-179 -39 0
-179 95 0
-179 -48 0
-179 -93 0
-179 56 0
-179 54 0
-179 -64 0
-179 17 0
-179 1 0
-179 7 0
179 39 -95 48 93 -56 -54 64 -17 -1 -7 0
-180 43 0
-180 -92 0
-180 12 0
-180 -58 0
-180 28 0
-180 -53 0
-180 -48 0
-180 -45 0
-180 -99 0
-180 -97 0
180 -43 92 -12 58 -28 53 48 45 99 97 0
171 172 173 174 175 176 177 178 179 180 0
-181 -82 0
-181 -26 0
-181 96 0
-181 -40 0
-181 -93 0
-181 -97 0
-181 -85 0
-181 -59 0
-181 89 0
-181 62 0
181 82 26 -96 40 93 97 85 59 -89 -62 0
-182 11 0
-182 -23 0
-182 -41 0
-182 38 0
-182 35 0
-182 -34 0
-182 -99 0
-182 -67 0
-182 6 0
-182 -82 0
182 -11 23 41 -38 -35 34 99 67 -6 82 0
-183 42 0
-183 75 0
-183 -46 0
-183 -16 0
-183 -7 0
-183 2 0
-183 -29 0
-183 -15 0
-183 -41 0
-183 -91 0
183 -42 -75 46 16 7 -2 29 15 41 91 0
-184 59 0
-184 91 0
-184 -18 0
-184 83 0
-184 97 0
-184 -64 0
-184 -6 0
-184 -11 0
-184 66 0
-184 1 0
184 -59 -91 18 -83 -97 64 6 11 -66 -1 0
-185 -88 0
-185 8 0
-185 82 0
-185 39 0
-185 22 0
-185 -83 0
-185 30 0
-185 34 0
-185 96 0
-185 -4 0
185 88 -8 -82 -39 -22 83 -30 -34 -96 4 0
-186 61 0
-186 56 0
-186 -92 0
-186 -40 0
-186 -98 0
-186 -10 0
-186 26 0
-186 89 0
-186 -9 0
-186 -36 0
186 -61 -56 92 40 98 10 -26 -89 9 36 0
-187 56 0
-187 -70 0
-187 -89 0
-187 -38 0
-187 39 0
-187 -65 0
-187 -96 0
-187 14 0
-187 -74 0
-187 -46 0
187 -56 70 89 38 -39 65 96 -14 74 46 0
-188 -80 0
-188 -39 0
-188 -60 0
-188 -67 0
-188 -94 0
-188 49 0
-188 -74 0
-188 4 0
-188 -79 0
-188 11 0
188 80 39 60 67 94 -49 74 -4 79 -11 0
-189 44 0
-189 78 0
-189 -85 0
-189 88 0
-189 91 0
-189 90 0
-189 71 0
-189 -75 0
-189 93 0
-189 -84 0
189 -44 -78 85 -88 -91 -90 -71 75 -93 84 0
-190 78 0
-190 56 0
-190 -10 0
-190 97 0
-190 8 0
-190 67 0
-190 31 0
-190 15 0
-190 93 0
-190 64 0
190 -78 -56 10 -97 -8 -67 -31 -15 -93 -64 0
181 182 183 184 185 186 187 188 189 190 0
-191 -3 0
-191 -1 0
-191 -24 0
-191 15 0
-191 -90 0
-191 -39 0
-191 -79 0
-191 -20 0
-191 -84 0
-191 -72 0
191 3 1 24 -15 90 39 79 20 84 72 0
-192 20 0
-192 -7 0
-192 75 0
-192 50 0
-192 -24 0
-192 -95 0
-192 25 0
-192 -100 0
-192 -53 0
-192 -83 0
192 -20 7 -75 -50 24 95 -25 100 53 83 0
-193 89 0
-193 2 0
-193 -64 0
-193 -48 0
-193 4 0
-193 36 0
-193 -51 0
-193 -77 0
-193 -50 0
-193 88 0
193 -89 -2 64 48 -4 -36 51 77 50 -88 0
-194 -54 0
-194 11 0
-194 20 0
-194 -7 0
-194 79 0
-194 5 0
-194 86 0
-194 -1 0
-194 23 0
-194 43 0
194 54 -11 -20 7 -79 -5 -86 1 -23 -43 0
-195 -24 0
-195 -83 0
-195 85 0
-195 -17 0
-195 67 0
-195 6 0
-195 91 0
-195 50 0
-195 -54 0
-195 -75 0
195 24 83 -85 17 -67 -6 -91 -50 54 75 0
-196 38 0
-196 78 0
-196 22 0
-196 -14 0
-196 -20 0
-196 -90 0
-196 -96 0
-196 4 0
-196 25 0
-196 89 0
196 -38 -78 -22 14 20 90 96 -4 -25 -89 0
-197 64 0
-197 67 0
-197 -16 0
-197 -74 0
-197 -70 0
-197 -18 0
-197 52 0
-197 -42 0
-197 -21 0
-197 -75 0
197 -64 -67 16 74 70 18 -52 42 21 75 0
-198 6 0
-198 9 0
-198 -76 0
-198 -96 0
-198 63 0
-198 -33 0
-198 -34 0
-198 -59 0
-198 40 0
-198 88 0
198 -6 -9 76 96 -63 33 34 59 -40 -88 0
-199 11 0
-199 42 0
-199 83 0
-199 -9 0
-199 -3 0
-199 62 0
-199 85 0
-199 71 0
-199 40 0
-199 41 0
199 -11 -42 -83 9 3 -62 -85 -71 -40 -41 0
-200 72 0
-200 -67 0
-200 -25 0
-200 -10 0
-200 -60 0
-200 -64 0
-200 14 0
-200 -6 0
-200 35 0
-200 74 0
200 -72 67 25 10 60 64 -14 6 -35 -74 0
191 192 193 194 195 196 197 198 199 200 0
